Traveling Salesman Problem/TSP_generados/Aleatorio1621104288_19.tsp
NAME: Aleatorio1621104288_19.tsp
COMMENT: Randomly generated scenario
TYPE: TSP
DIMENSION: 19
EDGE_WEIGHT_TYPE: ATT
NODE_COORD_SECTION
1 7.95 10.29
2 47.94 29.29
3 23.58 41.12
4 34.42 44.13
5 11.15 16.87
6 4.32 39.6
7 33.4 48.93
8 28.26 23.95
9 9.39 26.05
10 47.41 46.09
11 24.04 2.3
12 20.14 15.96
13 1.95 7.25
14 27.19 32.51
15 33.66 35.61
16 35.5 44.35
17 42.7 5.69
18 16.94 46.28
19 40.08 39.73
