Traveling Salesman Problem/TSP_generados/Aleatorio1621104288_19.opt.tour
NAME: Aleatorio1621104288_19.opt.tour
COMMENT: Optimal solution for Aleatorio1621104288_19 (219.38909516521147)
TYPE: TOUR
DIMENSION: 19
TOUR_SECTION
1 12 11 17 2 10 7 4 16 19 15 8 14 3 18 6 9 5 13
-1
EOF
